NAME: test1392
TYPE: TSP
DIMENSION: 11
EDGE_WEIGHT_TYPE: EUC_2D
NODE_COORD_SECTION
1 9.999312749586242 22.52809973810157
2 29.50195074956379 82.52922633023005
3 27.63336649100555 5.910057650327616
4 49.61290723414212 4.540825498470957
5 25.25831658865104 5.196590664045109
6 73.42368872756634 11.653785193525824
7 88.31038985033726 12.128132946125492
8 32.74416447481898 58.83523009474567
9 93.1228161934804 43.734195793562506
10 66.94452439179722 37.12448983435947
11 12.750593628780527 57.85481055551146
EOF
